Running MiniSat on FULL_RUN_MINISAT\fae08ac5b6d7eeb4f56f1cfac6c51703-j3045_4_mdd_bm1.cnf... 
============================[ Problem Statistics ]=============================
|                                                                             |
|  Number of variables:         13043                                         |
|  Number of clauses:           51999                                         |
|  Parse time:                   0.08 s                                       |
|                                                                             |
============================[ Search Statistics ]==============================
| Conflicts |          ORIGINAL         |          LEARNT          | Progress |
|           |    Vars  Clauses Literals |    Limit  Clauses Lit/Cl |          |
===============================================================================
|       100 |   12534    51587   124636 |    18915      100     19 |  3.902 % |
|       250 |   12534    51587   124636 |    20806      250     21 |  3.903 % |
|       475 |   12534    51587   124636 |    22887      475     26 |  3.903 % |
|       812 |   12534    51587   124636 |    25176      812     28 |  3.903 % |
|      1318 |   12534    51587   124636 |    27693     1318     27 |  3.903 % |
|      2077 |   12534    51587   124636 |    30463     2077     28 |  3.903 % |
|      3216 |   12534    51587   124636 |    33509     3216     31 |  3.903 % |
|      4924 |   12534    51587   124636 |    36860     4924     33 |  3.903 % |
|      7486 |   12534    51587   124636 |    40546     7486     32 |  3.902 % |
|     11330 |   12534    51587   124636 |    44601    11330     33 |  3.903 % |
|     17096 |   12534    51587   124636 |    49061    17096     33 |  3.903 % |
|     25745 |   12534    51587   124636 |    53967    25745     32 |  3.903 % |
|     38719 |   12534    51587   124636 |    59364    38719     34 |  3.903 % |
|     58180 |   12534    51587   124636 |    65300    58180     34 |  3.903 % |
ERROR: MiniSat process not found for FULL_RUN_MINISAT\fb45d41807bcbbbe689de282c1310798-Break_unsat_16_27.xml.cnf 
Finished MiniSat on FULL_RUN_MINISAT\fb45d41807bcbbbe689de282c1310798-Break_unsat_16_27.xml.cnf 
